NAME
ROWS
 N  OBJ
 G  c1
 G  c2
 G  c3
 G  c4
 G  c5
 G  c6
 G  c7
 G  c8
 G  c9
 G  c10
 G  c11
 G  c12
 G  c13
 G  c14
 G  c15
 G  c16
 G  c17
 G  c18
 G  c19
 G  c20
 G  c21
 G  c22
 G  c23
 G  c24
 G  c25
 G  c26
 G  c27
 G  c28
 G  c29
 G  c30
 G  c31
 G  c32
 G  c33
 G  c34
 G  c35
 G  c36
 G  c37
 G  c38
 G  c39
 G  c40
 G  c41
 G  c42
 G  c43
 G  c44
 G  c45
 G  c46
 G  c47
 G  c48
 G  c49
 G  c50
 G  c51
 G  c52
 G  c53
 G  c54
 G  c55
 G  c56
 G  c57
 G  c58
 G  c59
 G  c60
 G  c61
 G  c62
 G  c63
 G  c64
 G  c65
 G  c66
 G  c67
 G  c68
 G  c69
 G  c70
 G  c71
 G  c72
 G  c73
 G  c74
 G  c75
 G  c76
 G  c77
 G  c78
 G  c79
 G  c80
 G  c81
 G  c82
 G  c83
 G  c84
 G  c85
 G  c86
 G  c87
 G  c88
 G  c89
 G  c90
COLUMNS
    MARKER    'MARKER'                 'INTORG'
    x[1]      c1        1
    x[1]      c4        1
    x[1]      c8        1
    x[1]      c32       1
    x[1]      c41       1
    x[1]      c50       1
    x[1]      c57       1
    x[1]      c66       1
    x[1]      c68       1
    x[1]      c76       1
    x[1]      c89       1
    x[1]      OBJ       1
    x[2]      c2        1
    x[2]      c3        1
    x[2]      c20       1
    x[2]      c26       1
    x[2]      c35       1
    x[2]      c39       1
    x[2]      c45       1
    x[2]      c67       1
    x[2]      OBJ       1
    x[3]      c2        1
    x[3]      c3        1
    x[3]      c5        1
    x[3]      c8        1
    x[3]      c43       1
    x[3]      c50       1
    x[3]      c53       1
    x[3]      c55       1
    x[3]      OBJ       1
    x[4]      c1        1
    x[4]      c4        1
    x[4]      c17       1
    x[4]      c19       1
    x[4]      c27       1
    x[4]      c34       1
    x[4]      c42       1
    x[4]      c55       1
    x[4]      c66       1
    x[4]      c71       1
    x[4]      c75       1
    x[4]      c90       1
    x[4]      OBJ       1
    x[5]      c3        1
    x[5]      c5        1
    x[5]      c30       1
    x[5]      c39       1
    x[5]      c43       1
    x[5]      c47       1
    x[5]      c54       1
    x[5]      c64       1
    x[5]      c68       1
    x[5]      c81       1
    x[5]      c83       1
    x[5]      c90       1
    x[5]      OBJ       1
    x[6]      c6        1
    x[6]      c14       1
    x[6]      c17       1
    x[6]      c34       1
    x[6]      c40       1
    x[6]      c49       1
    x[6]      c76       1
    x[6]      c81       1
    x[6]      c86       1
    x[6]      OBJ       1
    x[7]      c7        1
    x[7]      c10       1
    x[7]      c40       1
    x[7]      c44       1
    x[7]      c45       1
    x[7]      c77       1
    x[7]      c79       1
    x[7]      c82       1
    x[7]      c87       1
    x[7]      OBJ       1
    x[8]      c1        1
    x[8]      c3        1
    x[8]      c8        1
    x[8]      c9        1
    x[8]      c32       1
    x[8]      c38       1
    x[8]      c41       1
    x[8]      c47       1
    x[8]      c56       1
    x[8]      c64       1
    x[8]      c70       1
    x[8]      c81       1
    x[8]      OBJ       1
    x[9]      c8        1
    x[9]      c9        1
    x[9]      c31       1
    x[9]      c35       1
    x[9]      c50       1
    x[9]      c61       1
    x[9]      c70       1
    x[9]      c76       1
    x[9]      c85       1
    x[9]      OBJ       1
    x[10]     c7        1
    x[10]     c10       1
    x[10]     c11       1
    x[10]     c14       1
    x[10]     c19       1
    x[10]     c64       1
    x[10]     OBJ       1
    x[11]     c10       1
    x[11]     c11       1
    x[11]     c15       1
    x[11]     c26       1
    x[11]     c29       1
    x[11]     c33       1
    x[11]     c45       1
    x[11]     c54       1
    x[11]     c59       1
    x[11]     c76       1
    x[11]     c80       1
    x[11]     c87       1
    x[11]     OBJ       1
    x[12]     c12       1
    x[12]     c34       1
    x[12]     c41       1
    x[12]     c44       1
    x[12]     c51       1
    x[12]     c69       1
    x[12]     c75       1
    x[12]     c80       1
    x[12]     OBJ       1
    x[13]     c13       1
    x[13]     c27       1
    x[13]     c45       1
    x[13]     c47       1
    x[13]     c61       1
    x[13]     c67       1
    x[13]     c68       1
    x[13]     c83       1
    x[13]     OBJ       1
    x[14]     c6        1
    x[14]     c10       1
    x[14]     c14       1
    x[14]     c27       1
    x[14]     c39       1
    x[14]     c56       1
    x[14]     c65       1
    x[14]     OBJ       1
    x[15]     c11       1
    x[15]     c15       1
    x[15]     c33       1
    x[15]     c37       1
    x[15]     c43       1
    x[15]     c75       1
    x[15]     c79       1
    x[15]     c80       1
    x[15]     c85       1
    x[15]     OBJ       1
    x[16]     c16       1
    x[16]     c18       1
    x[16]     c29       1
    x[16]     c31       1
    x[16]     c32       1
    x[16]     c38       1
    x[16]     c54       1
    x[16]     c82       1
    x[16]     c86       1
    x[16]     c89       1
    x[16]     OBJ       1
    x[17]     c4        1
    x[17]     c6        1
    x[17]     c17       1
    x[17]     c30       1
    x[17]     c39       1
    x[17]     c46       1
    x[17]     c65       1
    x[17]     c66       1
    x[17]     c71       1
    x[17]     c76       1
    x[17]     c89       1
    x[17]     OBJ       1
    x[18]     c16       1
    x[18]     c18       1
    x[18]     c28       1
    x[18]     c43       1
    x[18]     c49       1
    x[18]     c57       1
    x[18]     c79       1
    x[18]     OBJ       1
    x[19]     c4        1
    x[19]     c10       1
    x[19]     c19       1
    x[19]     c20       1
    x[19]     c43       1
    x[19]     c45       1
    x[19]     c57       1
    x[19]     c58       1
    x[19]     c62       1
    x[19]     c71       1
    x[19]     c77       1
    x[19]     OBJ       1
    x[20]     c2        1
    x[20]     c19       1
    x[20]     c20       1
    x[20]     c24       1
    x[20]     c41       1
    x[20]     c42       1
    x[20]     c60       1
    x[20]     c69       1
    x[20]     c70       1
    x[20]     c72       1
    x[20]     c80       1
    x[20]     OBJ       1
    x[21]     c21       1
    x[21]     c28       1
    x[21]     c46       1
    x[21]     c47       1
    x[21]     c48       1
    x[21]     c51       1
    x[21]     c55       1
    x[21]     c63       1
    x[21]     c64       1
    x[21]     c75       1
    x[21]     OBJ       1
    x[22]     c22       1
    x[22]     c31       1
    x[22]     c41       1
    x[22]     c46       1
    x[22]     c48       1
    x[22]     c67       1
    x[22]     c73       1
    x[22]     c85       1
    x[22]     OBJ       1
    x[23]     c23       1
    x[23]     c29       1
    x[23]     c46       1
    x[23]     c55       1
    x[23]     c57       1
    x[23]     c64       1
    x[23]     c71       1
    x[23]     c79       1
    x[23]     OBJ       1
    x[24]     c20       1
    x[24]     c24       1
    x[24]     c26       1
    x[24]     c33       1
    x[24]     c34       1
    x[24]     c42       1
    x[24]     c57       1
    x[24]     c67       1
    x[24]     c70       1
    x[24]     c73       1
    x[24]     c78       1
    x[24]     c79       1
    x[24]     OBJ       1
    x[25]     c25       1
    x[25]     c37       1
    x[25]     c41       1
    x[25]     c42       1
    x[25]     c62       1
    x[25]     c76       1
    x[25]     c77       1
    x[25]     c80       1
    x[25]     c83       1
    x[25]     c86       1
    x[25]     OBJ       1
    x[26]     c2        1
    x[26]     c11       1
    x[26]     c24       1
    x[26]     c26       1
    x[26]     c29       1
    x[26]     c37       1
    x[26]     c55       1
    x[26]     c74       1
    x[26]     OBJ       1
    x[27]     c4        1
    x[27]     c13       1
    x[27]     c14       1
    x[27]     c27       1
    x[27]     c38       1
    x[27]     c71       1
    x[27]     c76       1
    x[27]     c78       1
    x[27]     c89       1
    x[27]     c90       1
    x[27]     OBJ       1
    x[28]     c18       1
    x[28]     c21       1
    x[28]     c28       1
    x[28]     c67       1
    x[28]     c77       1
    x[28]     c83       1
    x[28]     c86       1
    x[28]     OBJ       1
    x[29]     c11       1
    x[29]     c16       1
    x[29]     c23       1
    x[29]     c26       1
    x[29]     c29       1
    x[29]     c30       1
    x[29]     c35       1
    x[29]     c36       1
    x[29]     c42       1
    x[29]     c48       1
    x[29]     c53       1
    x[29]     c68       1
    x[29]     OBJ       1
    x[30]     c5        1
    x[30]     c17       1
    x[30]     c29       1
    x[30]     c30       1
    x[30]     c63       1
    x[30]     c85       1
    x[30]     OBJ       1
    x[31]     c9        1
    x[31]     c16       1
    x[31]     c22       1
    x[31]     c31       1
    x[31]     c33       1
    x[31]     c38       1
    x[31]     c48       1
    x[31]     c73       1
    x[31]     c87       1
    x[31]     OBJ       1
    x[32]     c1        1
    x[32]     c8        1
    x[32]     c16       1
    x[32]     c32       1
    x[32]     c38       1
    x[32]     c47       1
    x[32]     c48       1
    x[32]     c54       1
    x[32]     c56       1
    x[32]     c72       1
    x[32]     c89       1
    x[32]     OBJ       1
    x[33]     c11       1
    x[33]     c15       1
    x[33]     c24       1
    x[33]     c31       1
    x[33]     c33       1
    x[33]     c34       1
    x[33]     c54       1
    x[33]     c60       1
    x[33]     c65       1
    x[33]     c81       1
    x[33]     c82       1
    x[33]     OBJ       1
    x[34]     c4        1
    x[34]     c6        1
    x[34]     c12       1
    x[34]     c24       1
    x[34]     c33       1
    x[34]     c34       1
    x[34]     c45       1
    x[34]     c50       1
    x[34]     c63       1
    x[34]     c71       1
    x[34]     c88       1
    x[34]     OBJ       1
    x[35]     c2        1
    x[35]     c9        1
    x[35]     c29       1
    x[35]     c35       1
    x[35]     c49       1
    x[35]     c55       1
    x[35]     c57       1
    x[35]     c58       1
    x[35]     c77       1
    x[35]     c87       1
    x[35]     c89       1
    x[35]     OBJ       1
    x[36]     c29       1
    x[36]     c36       1
    x[36]     c51       1
    x[36]     c52       1
    x[36]     c54       1
    x[36]     c57       1
    x[36]     c60       1
    x[36]     c71       1
    x[36]     OBJ       1
    x[37]     c15       1
    x[37]     c25       1
    x[37]     c26       1
    x[37]     c37       1
    x[37]     c41       1
    x[37]     c44       1
    x[37]     c47       1
    x[37]     c61       1
    x[37]     c77       1
    x[37]     c86       1
    x[37]     c90       1
    x[37]     OBJ       1
    x[38]     c8        1
    x[38]     c16       1
    x[38]     c27       1
    x[38]     c31       1
    x[38]     c32       1
    x[38]     c38       1
    x[38]     c45       1
    x[38]     c47       1
    x[38]     c50       1
    x[38]     c63       1
    x[38]     c67       1
    x[38]     c73       1
    x[38]     OBJ       1
    x[39]     c2        1
    x[39]     c5        1
    x[39]     c14       1
    x[39]     c17       1
    x[39]     c39       1
    x[39]     c45       1
    x[39]     c59       1
    x[39]     c68       1
    x[39]     c88       1
    x[39]     c90       1
    x[39]     OBJ       1
    x[40]     c6        1
    x[40]     c7        1
    x[40]     c40       1
    x[40]     c43       1
    x[40]     c52       1
    x[40]     c55       1
    x[40]     c57       1
    x[40]     c78       1
    x[40]     c83       1
    x[40]     c87       1
    x[40]     c90       1
    x[40]     OBJ       1
    x[41]     c1        1
    x[41]     c8        1
    x[41]     c12       1
    x[41]     c20       1
    x[41]     c22       1
    x[41]     c25       1
    x[41]     c37       1
    x[41]     c41       1
    x[41]     c53       1
    x[41]     c75       1
    x[41]     OBJ       1
    x[42]     c4        1
    x[42]     c20       1
    x[42]     c24       1
    x[42]     c25       1
    x[42]     c29       1
    x[42]     c42       1
    x[42]     c44       1
    x[42]     c56       1
    x[42]     c61       1
    x[42]     c68       1
    x[42]     OBJ       1
    x[43]     c3        1
    x[43]     c5        1
    x[43]     c15       1
    x[43]     c18       1
    x[43]     c19       1
    x[43]     c40       1
    x[43]     c43       1
    x[43]     c45       1
    x[43]     c51       1
    x[43]     c53       1
    x[43]     c62       1
    x[43]     c69       1
    x[43]     c76       1
    x[43]     c83       1
    x[43]     OBJ       1
    x[44]     c7        1
    x[44]     c12       1
    x[44]     c37       1
    x[44]     c42       1
    x[44]     c44       1
    x[44]     c55       1
    x[44]     c63       1
    x[44]     c66       1
    x[44]     c80       1
    x[44]     c81       1
    x[44]     c86       1
    x[44]     c89       1
    x[44]     OBJ       1
    x[45]     c2        1
    x[45]     c7        1
    x[45]     c11       1
    x[45]     c13       1
    x[45]     c19       1
    x[45]     c34       1
    x[45]     c38       1
    x[45]     c39       1
    x[45]     c43       1
    x[45]     c45       1
    x[45]     c55       1
    x[45]     c87       1
    x[45]     c90       1
    x[45]     OBJ       1
    x[46]     c17       1
    x[46]     c21       1
    x[46]     c22       1
    x[46]     c23       1
    x[46]     c46       1
    x[46]     c55       1
    x[46]     c57       1
    x[46]     c63       1
    x[46]     c77       1
    x[46]     OBJ       1
    x[47]     c5        1
    x[47]     c8        1
    x[47]     c13       1
    x[47]     c21       1
    x[47]     c32       1
    x[47]     c37       1
    x[47]     c38       1
    x[47]     c47       1
    x[47]     c63       1
    x[47]     c67       1
    x[47]     c78       1
    x[47]     c83       1
    x[47]     c85       1
    x[47]     OBJ       1
    x[48]     c21       1
    x[48]     c22       1
    x[48]     c29       1
    x[48]     c31       1
    x[48]     c32       1
    x[48]     c48       1
    x[48]     c59       1
    x[48]     c65       1
    x[48]     c70       1
    x[48]     c72       1
    x[48]     c74       1
    x[48]     c79       1
    x[48]     c86       1
    x[48]     OBJ       1
    x[49]     c6        1
    x[49]     c18       1
    x[49]     c35       1
    x[49]     c49       1
    x[49]     c53       1
    x[49]     c59       1
    x[49]     c64       1
    x[49]     c69       1
    x[49]     c78       1
    x[49]     c84       1
    x[49]     OBJ       1
    x[50]     c1        1
    x[50]     c3        1
    x[50]     c9        1
    x[50]     c34       1
    x[50]     c38       1
    x[50]     c50       1
    x[50]     c86       1
    x[50]     c89       1
    x[50]     OBJ       1
    x[51]     c12       1
    x[51]     c21       1
    x[51]     c36       1
    x[51]     c43       1
    x[51]     c51       1
    x[51]     c63       1
    x[51]     OBJ       1
    x[52]     c36       1
    x[52]     c40       1
    x[52]     c52       1
    x[52]     c56       1
    x[52]     c62       1
    x[52]     c71       1
    x[52]     c83       1
    x[52]     c85       1
    x[52]     c88       1
    x[52]     OBJ       1
    x[53]     c3        1
    x[53]     c29       1
    x[53]     c41       1
    x[53]     c43       1
    x[53]     c49       1
    x[53]     c53       1
    x[53]     c54       1
    x[53]     c57       1
    x[53]     c66       1
    x[53]     c72       1
    x[53]     c82       1
    x[53]     c87       1
    x[53]     OBJ       1
    x[54]     c5        1
    x[54]     c11       1
    x[54]     c16       1
    x[54]     c32       1
    x[54]     c33       1
    x[54]     c36       1
    x[54]     c53       1
    x[54]     c54       1
    x[54]     c72       1
    x[54]     c80       1
    x[54]     OBJ       1
    x[55]     c3        1
    x[55]     c4        1
    x[55]     c21       1
    x[55]     c23       1
    x[55]     c26       1
    x[55]     c35       1
    x[55]     c40       1
    x[55]     c44       1
    x[55]     c45       1
    x[55]     c46       1
    x[55]     c55       1
    x[55]     c58       1
    x[55]     c66       1
    x[55]     c79       1
    x[55]     c87       1
    x[55]     OBJ       1
    x[56]     c8        1
    x[56]     c14       1
    x[56]     c32       1
    x[56]     c42       1
    x[56]     c52       1
    x[56]     c56       1
    x[56]     c70       1
    x[56]     OBJ       1
    x[57]     c1        1
    x[57]     c18       1
    x[57]     c19       1
    x[57]     c23       1
    x[57]     c24       1
    x[57]     c35       1
    x[57]     c36       1
    x[57]     c40       1
    x[57]     c46       1
    x[57]     c53       1
    x[57]     c57       1
    x[57]     c70       1
    x[57]     c71       1
    x[57]     c78       1
    x[57]     c79       1
    x[57]     c82       1
    x[57]     OBJ       1
    x[58]     c19       1
    x[58]     c35       1
    x[58]     c55       1
    x[58]     c58       1
    x[58]     c66       1
    x[58]     c67       1
    x[58]     c78       1
    x[58]     c85       1
    x[58]     OBJ       1
    x[59]     c11       1
    x[59]     c39       1
    x[59]     c48       1
    x[59]     c49       1
    x[59]     c59       1
    x[59]     c64       1
    x[59]     c89       1
    x[59]     OBJ       1
    x[60]     c20       1
    x[60]     c33       1
    x[60]     c36       1
    x[60]     c60       1
    x[60]     c71       1
    x[60]     c80       1
    x[60]     c85       1
    x[60]     OBJ       1
    x[61]     c9        1
    x[61]     c13       1
    x[61]     c37       1
    x[61]     c42       1
    x[61]     c61       1
    x[61]     c72       1
    x[61]     c74       1
    x[61]     c75       1
    x[61]     OBJ       1
    x[62]     c19       1
    x[62]     c25       1
    x[62]     c43       1
    x[62]     c52       1
    x[62]     c62       1
    x[62]     c76       1
    x[62]     c80       1
    x[62]     c81       1
    x[62]     c85       1
    x[62]     c87       1
    x[62]     OBJ       1
    x[63]     c21       1
    x[63]     c30       1
    x[63]     c34       1
    x[63]     c38       1
    x[63]     c44       1
    x[63]     c46       1
    x[63]     c47       1
    x[63]     c51       1
    x[63]     c63       1
    x[63]     c74       1
    x[63]     c81       1
    x[63]     OBJ       1
    x[64]     c5        1
    x[64]     c8        1
    x[64]     c10       1
    x[64]     c21       1
    x[64]     c23       1
    x[64]     c49       1
    x[64]     c59       1
    x[64]     c64       1
    x[64]     c67       1
    x[64]     c80       1
    x[64]     OBJ       1
    x[65]     c14       1
    x[65]     c17       1
    x[65]     c33       1
    x[65]     c48       1
    x[65]     c65       1
    x[65]     c76       1
    x[65]     c82       1
    x[65]     OBJ       1
    x[66]     c1        1
    x[66]     c4        1
    x[66]     c17       1
    x[66]     c44       1
    x[66]     c53       1
    x[66]     c55       1
    x[66]     c58       1
    x[66]     c66       1
    x[66]     c70       1
    x[66]     c89       1
    x[66]     OBJ       1
    x[67]     c2        1
    x[67]     c13       1
    x[67]     c22       1
    x[67]     c24       1
    x[67]     c28       1
    x[67]     c38       1
    x[67]     c47       1
    x[67]     c58       1
    x[67]     c64       1
    x[67]     c67       1
    x[67]     c69       1
    x[67]     c77       1
    x[67]     c80       1
    x[67]     c89       1
    x[67]     OBJ       1
    x[68]     c1        1
    x[68]     c5        1
    x[68]     c13       1
    x[68]     c29       1
    x[68]     c39       1
    x[68]     c42       1
    x[68]     c68       1
    x[68]     c80       1
    x[68]     OBJ       1
    x[69]     c12       1
    x[69]     c20       1
    x[69]     c43       1
    x[69]     c49       1
    x[69]     c67       1
    x[69]     c69       1
    x[69]     c81       1
    x[69]     OBJ       1
    x[70]     c8        1
    x[70]     c9        1
    x[70]     c20       1
    x[70]     c24       1
    x[70]     c48       1
    x[70]     c56       1
    x[70]     c57       1
    x[70]     c66       1
    x[70]     c70       1
    x[70]     c76       1
    x[70]     OBJ       1
    x[71]     c4        1
    x[71]     c17       1
    x[71]     c19       1
    x[71]     c23       1
    x[71]     c27       1
    x[71]     c34       1
    x[71]     c36       1
    x[71]     c52       1
    x[71]     c57       1
    x[71]     c60       1
    x[71]     c71       1
    x[71]     c72       1
    x[71]     c84       1
    x[71]     OBJ       1
    x[72]     c20       1
    x[72]     c32       1
    x[72]     c48       1
    x[72]     c53       1
    x[72]     c54       1
    x[72]     c61       1
    x[72]     c71       1
    x[72]     c72       1
    x[72]     c82       1
    x[72]     OBJ       1
    x[73]     c22       1
    x[73]     c24       1
    x[73]     c31       1
    x[73]     c38       1
    x[73]     c73       1
    x[73]     c88       1
    x[73]     OBJ       1
    x[74]     c26       1
    x[74]     c48       1
    x[74]     c61       1
    x[74]     c63       1
    x[74]     c74       1
    x[74]     c76       1
    x[74]     c84       1
    x[74]     c86       1
    x[74]     OBJ       1
    x[75]     c4        1
    x[75]     c12       1
    x[75]     c15       1
    x[75]     c21       1
    x[75]     c41       1
    x[75]     c61       1
    x[75]     c75       1
    x[75]     c82       1
    x[75]     OBJ       1
    x[76]     c1        1
    x[76]     c6        1
    x[76]     c9        1
    x[76]     c11       1
    x[76]     c17       1
    x[76]     c25       1
    x[76]     c27       1
    x[76]     c43       1
    x[76]     c62       1
    x[76]     c65       1
    x[76]     c70       1
    x[76]     c74       1
    x[76]     c76       1
    x[76]     c86       1
    x[76]     c88       1
    x[76]     OBJ       1
    x[77]     c7        1
    x[77]     c19       1
    x[77]     c25       1
    x[77]     c28       1
    x[77]     c35       1
    x[77]     c37       1
    x[77]     c46       1
    x[77]     c67       1
    x[77]     c77       1
    x[77]     c79       1
    x[77]     OBJ       1
    x[78]     c24       1
    x[78]     c27       1
    x[78]     c40       1
    x[78]     c47       1
    x[78]     c49       1
    x[78]     c57       1
    x[78]     c58       1
    x[78]     c78       1
    x[78]     OBJ       1
    x[79]     c7        1
    x[79]     c15       1
    x[79]     c18       1
    x[79]     c23       1
    x[79]     c24       1
    x[79]     c48       1
    x[79]     c55       1
    x[79]     c57       1
    x[79]     c77       1
    x[79]     c79       1
    x[79]     c80       1
    x[79]     c88       1
    x[79]     OBJ       1
    x[80]     c11       1
    x[80]     c12       1
    x[80]     c15       1
    x[80]     c20       1
    x[80]     c25       1
    x[80]     c44       1
    x[80]     c54       1
    x[80]     c60       1
    x[80]     c62       1
    x[80]     c64       1
    x[80]     c67       1
    x[80]     c68       1
    x[80]     c79       1
    x[80]     c80       1
    x[80]     OBJ       1
    x[81]     c5        1
    x[81]     c6        1
    x[81]     c8        1
    x[81]     c33       1
    x[81]     c44       1
    x[81]     c62       1
    x[81]     c63       1
    x[81]     c69       1
    x[81]     c81       1
    x[81]     c89       1
    x[81]     OBJ       1
    x[82]     c7        1
    x[82]     c16       1
    x[82]     c33       1
    x[82]     c53       1
    x[82]     c57       1
    x[82]     c65       1
    x[82]     c72       1
    x[82]     c75       1
    x[82]     c82       1
    x[82]     c84       1
    x[82]     OBJ       1
    x[83]     c5        1
    x[83]     c13       1
    x[83]     c25       1
    x[83]     c28       1
    x[83]     c40       1
    x[83]     c43       1
    x[83]     c47       1
    x[83]     c52       1
    x[83]     c83       1
    x[83]     OBJ       1
    x[84]     c49       1
    x[84]     c71       1
    x[84]     c74       1
    x[84]     c82       1
    x[84]     c84       1
    x[84]     OBJ       1
    x[85]     c9        1
    x[85]     c15       1
    x[85]     c22       1
    x[85]     c30       1
    x[85]     c47       1
    x[85]     c52       1
    x[85]     c58       1
    x[85]     c60       1
    x[85]     c62       1
    x[85]     c85       1
    x[85]     OBJ       1
    x[86]     c6        1
    x[86]     c16       1
    x[86]     c25       1
    x[86]     c28       1
    x[86]     c37       1
    x[86]     c44       1
    x[86]     c48       1
    x[86]     c50       1
    x[86]     c74       1
    x[86]     c76       1
    x[86]     c86       1
    x[86]     OBJ       1
    x[87]     c7        1
    x[87]     c11       1
    x[87]     c31       1
    x[87]     c35       1
    x[87]     c40       1
    x[87]     c45       1
    x[87]     c53       1
    x[87]     c55       1
    x[87]     c62       1
    x[87]     c87       1
    x[87]     c90       1
    x[87]     OBJ       1
    x[88]     c34       1
    x[88]     c39       1
    x[88]     c52       1
    x[88]     c73       1
    x[88]     c76       1
    x[88]     c79       1
    x[88]     c88       1
    x[88]     OBJ       1
    x[89]     c1        1
    x[89]     c16       1
    x[89]     c17       1
    x[89]     c27       1
    x[89]     c32       1
    x[89]     c35       1
    x[89]     c44       1
    x[89]     c50       1
    x[89]     c59       1
    x[89]     c66       1
    x[89]     c67       1
    x[89]     c81       1
    x[89]     c89       1
    x[89]     c90       1
    x[89]     OBJ       1
    x[90]     c4        1
    x[90]     c5        1
    x[90]     c27       1
    x[90]     c37       1
    x[90]     c39       1
    x[90]     c40       1
    x[90]     c45       1
    x[90]     c87       1
    x[90]     c89       1
    x[90]     c90       1
    x[90]     OBJ       1
    MARKER    'MARKER'                 'INTEND'
RHS
    rhs       c1        1
    rhs       c2        1
    rhs       c3        1
    rhs       c4        1
    rhs       c5        1
    rhs       c6        1
    rhs       c7        1
    rhs       c8        1
    rhs       c9        1
    rhs       c10       1
    rhs       c11       1
    rhs       c12       1
    rhs       c13       1
    rhs       c14       1
    rhs       c15       1
    rhs       c16       1
    rhs       c17       1
    rhs       c18       1
    rhs       c19       1
    rhs       c20       1
    rhs       c21       1
    rhs       c22       1
    rhs       c23       1
    rhs       c24       1
    rhs       c25       1
    rhs       c26       1
    rhs       c27       1
    rhs       c28       1
    rhs       c29       1
    rhs       c30       1
    rhs       c31       1
    rhs       c32       1
    rhs       c33       1
    rhs       c34       1
    rhs       c35       1
    rhs       c36       1
    rhs       c37       1
    rhs       c38       1
    rhs       c39       1
    rhs       c40       1
    rhs       c41       1
    rhs       c42       1
    rhs       c43       1
    rhs       c44       1
    rhs       c45       1
    rhs       c46       1
    rhs       c47       1
    rhs       c48       1
    rhs       c49       1
    rhs       c50       1
    rhs       c51       1
    rhs       c52       1
    rhs       c53       1
    rhs       c54       1
    rhs       c55       1
    rhs       c56       1
    rhs       c57       1
    rhs       c58       1
    rhs       c59       1
    rhs       c60       1
    rhs       c61       1
    rhs       c62       1
    rhs       c63       1
    rhs       c64       1
    rhs       c65       1
    rhs       c66       1
    rhs       c67       1
    rhs       c68       1
    rhs       c69       1
    rhs       c70       1
    rhs       c71       1
    rhs       c72       1
    rhs       c73       1
    rhs       c74       1
    rhs       c75       1
    rhs       c76       1
    rhs       c77       1
    rhs       c78       1
    rhs       c79       1
    rhs       c80       1
    rhs       c81       1
    rhs       c82       1
    rhs       c83       1
    rhs       c84       1
    rhs       c85       1
    rhs       c86       1
    rhs       c87       1
    rhs       c88       1
    rhs       c89       1
    rhs       c90       1
RANGES
BOUNDS
 BV bounds    x[1]
 BV bounds    x[2]
 BV bounds    x[3]
 BV bounds    x[4]
 BV bounds    x[5]
 BV bounds    x[6]
 BV bounds    x[7]
 BV bounds    x[8]
 BV bounds    x[9]
 BV bounds    x[10]
 BV bounds    x[11]
 BV bounds    x[12]
 BV bounds    x[13]
 BV bounds    x[14]
 BV bounds    x[15]
 BV bounds    x[16]
 BV bounds    x[17]
 BV bounds    x[18]
 BV bounds    x[19]
 BV bounds    x[20]
 BV bounds    x[21]
 BV bounds    x[22]
 BV bounds    x[23]
 BV bounds    x[24]
 BV bounds    x[25]
 BV bounds    x[26]
 BV bounds    x[27]
 BV bounds    x[28]
 BV bounds    x[29]
 BV bounds    x[30]
 BV bounds    x[31]
 BV bounds    x[32]
 BV bounds    x[33]
 BV bounds    x[34]
 BV bounds    x[35]
 BV bounds    x[36]
 BV bounds    x[37]
 BV bounds    x[38]
 BV bounds    x[39]
 BV bounds    x[40]
 BV bounds    x[41]
 BV bounds    x[42]
 BV bounds    x[43]
 BV bounds    x[44]
 BV bounds    x[45]
 BV bounds    x[46]
 BV bounds    x[47]
 BV bounds    x[48]
 BV bounds    x[49]
 BV bounds    x[50]
 BV bounds    x[51]
 BV bounds    x[52]
 BV bounds    x[53]
 BV bounds    x[54]
 BV bounds    x[55]
 BV bounds    x[56]
 BV bounds    x[57]
 BV bounds    x[58]
 BV bounds    x[59]
 BV bounds    x[60]
 BV bounds    x[61]
 BV bounds    x[62]
 BV bounds    x[63]
 BV bounds    x[64]
 BV bounds    x[65]
 BV bounds    x[66]
 BV bounds    x[67]
 BV bounds    x[68]
 BV bounds    x[69]
 BV bounds    x[70]
 BV bounds    x[71]
 BV bounds    x[72]
 BV bounds    x[73]
 BV bounds    x[74]
 BV bounds    x[75]
 BV bounds    x[76]
 BV bounds    x[77]
 BV bounds    x[78]
 BV bounds    x[79]
 BV bounds    x[80]
 BV bounds    x[81]
 BV bounds    x[82]
 BV bounds    x[83]
 BV bounds    x[84]
 BV bounds    x[85]
 BV bounds    x[86]
 BV bounds    x[87]
 BV bounds    x[88]
 BV bounds    x[89]
 BV bounds    x[90]
ENDATA
